\ Model master_
\ LP format - for model browsing. Use MPS format to capture full model detail.
Minimize
  100 COL00043 + 100 COL00044 + 100 COL00045 + 100 COL00046 + 100 COL00047
   + 100 COL00048 + 100 COL00049 + 100 COL00050 + 100 COL00051
   + 100 COL00052 + 100 COL00053 + 100 COL00054 + 100 COL00055
   + 100 COL00056 + 100 COL00057 + 100 COL00058 + 100 COL00059
   + 100 COL00060 + 100 COL00061 + 100 COL00062 + 100 COL00063 + \eta
Subject To
 ROW00001: COL00001 + COL00002 + COL00003 + COL00004 + COL00005 + COL00006
   + COL00007 + COL00008 + COL00009 + COL00010 + COL00011 + COL00012
   + COL00013 + COL00014 + COL00015 + COL00016 + COL00017 + COL00018
   + COL00019 + COL00020 + COL00021 = 600
 ROW00002: COL00022 + COL00023 + COL00024 + COL00025 + COL00026 + COL00027
   + COL00028 + COL00029 + COL00030 + COL00031 + COL00032 + COL00033
   + COL00034 + COL00035 + COL00036 + COL00037 + COL00038 + COL00039
   + COL00040 + COL00041 + COL00042 = 400
 ROW00003: COL00043 + COL00044 + COL00045 + COL00046 + COL00047 + COL00048
   + COL00049 + COL00050 + COL00051 + COL00052 + COL00053 + COL00054
   + COL00055 + COL00056 + COL00057 + COL00058 + COL00059 + COL00060
   + COL00061 + COL00062 + COL00063 <= 10000
Bounds
End
